
  32    4
  10   10   10   10

   0   0   0   0   0  16 2 4 8 19 20 21 22 23 24 25 26 27 28 29 30 31 
   7  10  10  10  10   4 18 17 16 3 
   7  10  10  10  10   5 15 14 13 12 5 
   3  10  10  10  10   3 14 13 5 
  10  10  10  10  10   2 11 6 
  10  10  10  10  10   2 10 7 
   9  10  10  10  10   1 9 
   3  10  10  10  10   1 12 
   4  10  10  10  10   1 32
   4  10  10  10  10   1 32
   7  10  10  10  10   1 32
   9  10  10  10  10   1 32
   4  10  10  10  10   1 32
   6  10  10  10  10   1 32
   7  10  10  10  10   1 32
   6  10  10  10  10   1 32
  10  10  10  10  10   1 32
  10  10  10  10  10   1 32
   2  10  10  10  10   1 32
   8  10  10  10  10   1 32
   9  10  10  10  10   1 32
   5  10  10  10  10   1 32
   3  10  10  10  10   1 32
   1  10  10  10  10   1 32
   1  10  10  10  10   1 32
   4  10  10  10  10   1 32
   7  10  10  10  10   1 32
   6  10  10  10  10   1 32
   3  10  10  10  10   1 32
   5  10  10  10  10   1 32
   9  10  10  10  10   1 32
   0   0   0   0   0   0 
